(set-logic QF_LRA)
(declare-fun T1 () Real )
(declare-fun T2 () Real )
(declare-fun T3 () Real )
(declare-fun T4 () Real )
(declare-fun T5 () Real )
(declare-fun T6 () Real )
(declare-fun T7 () Real )
(declare-fun T8 () Real )
(declare-fun Z () Real )
(assert ( and 
(or ( <= ( + T1 62 ) T2 ) ( <= ( + T2 81 ) T1 ) )
(or ( <= ( + T1 139 )  ( + T2 81 ) ) ( <= ( + T2 125 )( + T1 62 ) ) )
(or ( <= ( + T1 219 )  ( + T2 125 ) ) ( <= ( + T2 126 )( + T1 139 ) ) )
(or ( <= ( + T1 262 )  ( + T2 126 ) ) ( <= ( + T2 198 )( + T1 219 ) ) )
(or ( <= ( + T1 287 )  ( + T2 198 ) ) ( <= ( + T2 277 )( + T1 262 ) ) )
(or ( <= ( + T1 378 )  ( + T2 277 ) ) ( <= ( + T2 286 )( + T1 287 ) ) )
(or ( <= ( + T1 62 ) T3 ) ( <= ( + T3 40 ) T1 ) )
(or ( <= ( + T1 139 )  ( + T3 40 ) ) ( <= ( + T3 104 )( + T1 62 ) ) )
(or ( <= ( + T1 219 )  ( + T3 104 ) ) ( <= ( + T3 163 )( + T1 139 ) ) )
(or ( <= ( + T1 262 )  ( + T3 163 ) ) ( <= ( + T3 196 )( + T1 219 ) ) )
(or ( <= ( + T1 287 )  ( + T3 196 ) ) ( <= ( + T3 212 )( + T1 262 ) ) )
(or ( <= ( + T1 378 )  ( + T3 212 ) ) ( <= ( + T3 221 )( + T1 287 ) ) )
(or ( <= ( + T1 62 ) T4 ) ( <= ( + T4 48 ) T1 ) )
(or ( <= ( + T1 139 )  ( + T4 48 ) ) ( <= ( + T4 53 )( + T1 62 ) ) )
(or ( <= ( + T1 219 )  ( + T4 53 ) ) ( <= ( + T4 98 )( + T1 139 ) ) )
(or ( <= ( + T1 262 )  ( + T4 98 ) ) ( <= ( + T4 151 )( + T1 219 ) ) )
(or ( <= ( + T1 287 )  ( + T4 151 ) ) ( <= ( + T4 208 )( + T1 262 ) ) )
(or ( <= ( + T1 378 )  ( + T4 208 ) ) ( <= ( + T4 283 )( + T1 287 ) ) )
(or ( <= ( + T1 62 ) T5 ) ( <= ( + T5 12 ) T1 ) )
(or ( <= ( + T1 139 )  ( + T5 12 ) ) ( <= ( + T5 98 )( + T1 62 ) ) )
(or ( <= ( + T1 219 )  ( + T5 98 ) ) ( <= ( + T5 165 )( + T1 139 ) ) )
(or ( <= ( + T1 262 )  ( + T5 165 ) ) ( <= ( + T5 262 )( + T1 219 ) ) )
(or ( <= ( + T1 287 )  ( + T5 262 ) ) ( <= ( + T5 324 )( + T1 262 ) ) )
(or ( <= ( + T1 378 )  ( + T5 324 ) ) ( <= ( + T5 340 )( + T1 287 ) ) )
(or ( <= ( + T1 62 ) T6 ) ( <= ( + T6 48 ) T1 ) )
(or ( <= ( + T1 139 )  ( + T6 48 ) ) ( <= ( + T6 124 )( + T1 62 ) ) )
(or ( <= ( + T1 219 )  ( + T6 124 ) ) ( <= ( + T6 216 )( + T1 139 ) ) )
(or ( <= ( + T1 262 )  ( + T6 216 ) ) ( <= ( + T6 295 )( + T1 219 ) ) )
(or ( <= ( + T1 287 )  ( + T6 295 ) ) ( <= ( + T6 313 )( + T1 262 ) ) )
(or ( <= ( + T1 378 )  ( + T6 313 ) ) ( <= ( + T6 381 )( + T1 287 ) ) )
(or ( <= ( + T1 62 ) T7 ) ( <= ( + T7 69 ) T1 ) )
(or ( <= ( + T1 139 )  ( + T7 69 ) ) ( <= ( + T7 167 )( + T1 62 ) ) )
(or ( <= ( + T1 219 )  ( + T7 167 ) ) ( <= ( + T7 178 )( + T1 139 ) ) )
(or ( <= ( + T1 262 )  ( + T7 178 ) ) ( <= ( + T7 199 )( + T1 219 ) ) )
(or ( <= ( + T1 287 )  ( + T7 199 ) ) ( <= ( + T7 220 )( + T1 262 ) ) )
(or ( <= ( + T1 378 )  ( + T7 220 ) ) ( <= ( + T7 309 )( + T1 287 ) ) )
(or ( <= ( + T1 62 ) T8 ) ( <= ( + T8 81 ) T1 ) )
(or ( <= ( + T1 139 )  ( + T8 81 ) ) ( <= ( + T8 93 )( + T1 62 ) ) )
(or ( <= ( + T1 219 )  ( + T8 93 ) ) ( <= ( + T8 98 )( + T1 139 ) ) )
(or ( <= ( + T1 262 )  ( + T8 98 ) ) ( <= ( + T8 138 )( + T1 219 ) ) )
(or ( <= ( + T1 287 )  ( + T8 138 ) ) ( <= ( + T8 182 )( + T1 262 ) ) )
(or ( <= ( + T1 378 )  ( + T8 182 ) ) ( <= ( + T8 254 )( + T1 287 ) ) )
(or ( <= ( + T2 81 ) T3 ) ( <= ( + T3 40 ) T2 ) )
(or ( <= ( + T2 125 )  ( + T3 40 ) ) ( <= ( + T3 104 )( + T2 81 ) ) )
(or ( <= ( + T2 126 )  ( + T3 104 ) ) ( <= ( + T3 163 )( + T2 125 ) ) )
(or ( <= ( + T2 198 )  ( + T3 163 ) ) ( <= ( + T3 196 )( + T2 126 ) ) )
(or ( <= ( + T2 277 )  ( + T3 196 ) ) ( <= ( + T3 212 )( + T2 198 ) ) )
(or ( <= ( + T2 286 )  ( + T3 212 ) ) ( <= ( + T3 221 )( + T2 277 ) ) )
(or ( <= ( + T2 81 ) T4 ) ( <= ( + T4 48 ) T2 ) )
(or ( <= ( + T2 125 )  ( + T4 48 ) ) ( <= ( + T4 53 )( + T2 81 ) ) )
(or ( <= ( + T2 126 )  ( + T4 53 ) ) ( <= ( + T4 98 )( + T2 125 ) ) )
(or ( <= ( + T2 198 )  ( + T4 98 ) ) ( <= ( + T4 151 )( + T2 126 ) ) )
(or ( <= ( + T2 277 )  ( + T4 151 ) ) ( <= ( + T4 208 )( + T2 198 ) ) )
(or ( <= ( + T2 286 )  ( + T4 208 ) ) ( <= ( + T4 283 )( + T2 277 ) ) )
(or ( <= ( + T2 81 ) T5 ) ( <= ( + T5 12 ) T2 ) )
(or ( <= ( + T2 125 )  ( + T5 12 ) ) ( <= ( + T5 98 )( + T2 81 ) ) )
(or ( <= ( + T2 126 )  ( + T5 98 ) ) ( <= ( + T5 165 )( + T2 125 ) ) )
(or ( <= ( + T2 198 )  ( + T5 165 ) ) ( <= ( + T5 262 )( + T2 126 ) ) )
(or ( <= ( + T2 277 )  ( + T5 262 ) ) ( <= ( + T5 324 )( + T2 198 ) ) )
(or ( <= ( + T2 286 )  ( + T5 324 ) ) ( <= ( + T5 340 )( + T2 277 ) ) )
(or ( <= ( + T2 81 ) T6 ) ( <= ( + T6 48 ) T2 ) )
(or ( <= ( + T2 125 )  ( + T6 48 ) ) ( <= ( + T6 124 )( + T2 81 ) ) )
(or ( <= ( + T2 126 )  ( + T6 124 ) ) ( <= ( + T6 216 )( + T2 125 ) ) )
(or ( <= ( + T2 198 )  ( + T6 216 ) ) ( <= ( + T6 295 )( + T2 126 ) ) )
(or ( <= ( + T2 277 )  ( + T6 295 ) ) ( <= ( + T6 313 )( + T2 198 ) ) )
(or ( <= ( + T2 286 )  ( + T6 313 ) ) ( <= ( + T6 381 )( + T2 277 ) ) )
(or ( <= ( + T2 81 ) T7 ) ( <= ( + T7 69 ) T2 ) )
(or ( <= ( + T2 125 )  ( + T7 69 ) ) ( <= ( + T7 167 )( + T2 81 ) ) )
(or ( <= ( + T2 126 )  ( + T7 167 ) ) ( <= ( + T7 178 )( + T2 125 ) ) )
(or ( <= ( + T2 198 )  ( + T7 178 ) ) ( <= ( + T7 199 )( + T2 126 ) ) )
(or ( <= ( + T2 277 )  ( + T7 199 ) ) ( <= ( + T7 220 )( + T2 198 ) ) )
(or ( <= ( + T2 286 )  ( + T7 220 ) ) ( <= ( + T7 309 )( + T2 277 ) ) )
(or ( <= ( + T2 81 ) T8 ) ( <= ( + T8 81 ) T2 ) )
(or ( <= ( + T2 125 )  ( + T8 81 ) ) ( <= ( + T8 93 )( + T2 81 ) ) )
(or ( <= ( + T2 126 )  ( + T8 93 ) ) ( <= ( + T8 98 )( + T2 125 ) ) )
(or ( <= ( + T2 198 )  ( + T8 98 ) ) ( <= ( + T8 138 )( + T2 126 ) ) )
(or ( <= ( + T2 277 )  ( + T8 138 ) ) ( <= ( + T8 182 )( + T2 198 ) ) )
(or ( <= ( + T2 286 )  ( + T8 182 ) ) ( <= ( + T8 254 )( + T2 277 ) ) )
(or ( <= ( + T3 40 ) T4 ) ( <= ( + T4 48 ) T3 ) )
(or ( <= ( + T3 104 )  ( + T4 48 ) ) ( <= ( + T4 53 )( + T3 40 ) ) )
(or ( <= ( + T3 163 )  ( + T4 53 ) ) ( <= ( + T4 98 )( + T3 104 ) ) )
(or ( <= ( + T3 196 )  ( + T4 98 ) ) ( <= ( + T4 151 )( + T3 163 ) ) )
(or ( <= ( + T3 212 )  ( + T4 151 ) ) ( <= ( + T4 208 )( + T3 196 ) ) )
(or ( <= ( + T3 221 )  ( + T4 208 ) ) ( <= ( + T4 283 )( + T3 212 ) ) )
(or ( <= ( + T3 40 ) T5 ) ( <= ( + T5 12 ) T3 ) )
(or ( <= ( + T3 104 )  ( + T5 12 ) ) ( <= ( + T5 98 )( + T3 40 ) ) )
(or ( <= ( + T3 163 )  ( + T5 98 ) ) ( <= ( + T5 165 )( + T3 104 ) ) )
(or ( <= ( + T3 196 )  ( + T5 165 ) ) ( <= ( + T5 262 )( + T3 163 ) ) )
(or ( <= ( + T3 212 )  ( + T5 262 ) ) ( <= ( + T5 324 )( + T3 196 ) ) )
(or ( <= ( + T3 221 )  ( + T5 324 ) ) ( <= ( + T5 340 )( + T3 212 ) ) )
(or ( <= ( + T3 40 ) T6 ) ( <= ( + T6 48 ) T3 ) )
(or ( <= ( + T3 104 )  ( + T6 48 ) ) ( <= ( + T6 124 )( + T3 40 ) ) )
(or ( <= ( + T3 163 )  ( + T6 124 ) ) ( <= ( + T6 216 )( + T3 104 ) ) )
(or ( <= ( + T3 196 )  ( + T6 216 ) ) ( <= ( + T6 295 )( + T3 163 ) ) )
(or ( <= ( + T3 212 )  ( + T6 295 ) ) ( <= ( + T6 313 )( + T3 196 ) ) )
(or ( <= ( + T3 221 )  ( + T6 313 ) ) ( <= ( + T6 381 )( + T3 212 ) ) )
(or ( <= ( + T3 40 ) T7 ) ( <= ( + T7 69 ) T3 ) )
(or ( <= ( + T3 104 )  ( + T7 69 ) ) ( <= ( + T7 167 )( + T3 40 ) ) )
(or ( <= ( + T3 163 )  ( + T7 167 ) ) ( <= ( + T7 178 )( + T3 104 ) ) )
(or ( <= ( + T3 196 )  ( + T7 178 ) ) ( <= ( + T7 199 )( + T3 163 ) ) )
(or ( <= ( + T3 212 )  ( + T7 199 ) ) ( <= ( + T7 220 )( + T3 196 ) ) )
(or ( <= ( + T3 221 )  ( + T7 220 ) ) ( <= ( + T7 309 )( + T3 212 ) ) )
(or ( <= ( + T3 40 ) T8 ) ( <= ( + T8 81 ) T3 ) )
(or ( <= ( + T3 104 )  ( + T8 81 ) ) ( <= ( + T8 93 )( + T3 40 ) ) )
(or ( <= ( + T3 163 )  ( + T8 93 ) ) ( <= ( + T8 98 )( + T3 104 ) ) )
(or ( <= ( + T3 196 )  ( + T8 98 ) ) ( <= ( + T8 138 )( + T3 163 ) ) )
(or ( <= ( + T3 212 )  ( + T8 138 ) ) ( <= ( + T8 182 )( + T3 196 ) ) )
(or ( <= ( + T3 221 )  ( + T8 182 ) ) ( <= ( + T8 254 )( + T3 212 ) ) )
(or ( <= ( + T4 48 ) T5 ) ( <= ( + T5 12 ) T4 ) )
(or ( <= ( + T4 53 )  ( + T5 12 ) ) ( <= ( + T5 98 )( + T4 48 ) ) )
(or ( <= ( + T4 98 )  ( + T5 98 ) ) ( <= ( + T5 165 )( + T4 53 ) ) )
(or ( <= ( + T4 151 )  ( + T5 165 ) ) ( <= ( + T5 262 )( + T4 98 ) ) )
(or ( <= ( + T4 208 )  ( + T5 262 ) ) ( <= ( + T5 324 )( + T4 151 ) ) )
(or ( <= ( + T4 283 )  ( + T5 324 ) ) ( <= ( + T5 340 )( + T4 208 ) ) )
(or ( <= ( + T4 48 ) T6 ) ( <= ( + T6 48 ) T4 ) )
(or ( <= ( + T4 53 )  ( + T6 48 ) ) ( <= ( + T6 124 )( + T4 48 ) ) )
(or ( <= ( + T4 98 )  ( + T6 124 ) ) ( <= ( + T6 216 )( + T4 53 ) ) )
(or ( <= ( + T4 151 )  ( + T6 216 ) ) ( <= ( + T6 295 )( + T4 98 ) ) )
(or ( <= ( + T4 208 )  ( + T6 295 ) ) ( <= ( + T6 313 )( + T4 151 ) ) )
(or ( <= ( + T4 283 )  ( + T6 313 ) ) ( <= ( + T6 381 )( + T4 208 ) ) )
(or ( <= ( + T4 48 ) T7 ) ( <= ( + T7 69 ) T4 ) )
(or ( <= ( + T4 53 )  ( + T7 69 ) ) ( <= ( + T7 167 )( + T4 48 ) ) )
(or ( <= ( + T4 98 )  ( + T7 167 ) ) ( <= ( + T7 178 )( + T4 53 ) ) )
(or ( <= ( + T4 151 )  ( + T7 178 ) ) ( <= ( + T7 199 )( + T4 98 ) ) )
(or ( <= ( + T4 208 )  ( + T7 199 ) ) ( <= ( + T7 220 )( + T4 151 ) ) )
(or ( <= ( + T4 283 )  ( + T7 220 ) ) ( <= ( + T7 309 )( + T4 208 ) ) )
(or ( <= ( + T4 48 ) T8 ) ( <= ( + T8 81 ) T4 ) )
(or ( <= ( + T4 53 )  ( + T8 81 ) ) ( <= ( + T8 93 )( + T4 48 ) ) )
(or ( <= ( + T4 98 )  ( + T8 93 ) ) ( <= ( + T8 98 )( + T4 53 ) ) )
(or ( <= ( + T4 151 )  ( + T8 98 ) ) ( <= ( + T8 138 )( + T4 98 ) ) )
(or ( <= ( + T4 208 )  ( + T8 138 ) ) ( <= ( + T8 182 )( + T4 151 ) ) )
(or ( <= ( + T4 283 )  ( + T8 182 ) ) ( <= ( + T8 254 )( + T4 208 ) ) )
(or ( <= ( + T5 12 ) T6 ) ( <= ( + T6 48 ) T5 ) )
(or ( <= ( + T5 98 )  ( + T6 48 ) ) ( <= ( + T6 124 )( + T5 12 ) ) )
(or ( <= ( + T5 165 )  ( + T6 124 ) ) ( <= ( + T6 216 )( + T5 98 ) ) )
(or ( <= ( + T5 262 )  ( + T6 216 ) ) ( <= ( + T6 295 )( + T5 165 ) ) )
(or ( <= ( + T5 324 )  ( + T6 295 ) ) ( <= ( + T6 313 )( + T5 262 ) ) )
(or ( <= ( + T5 340 )  ( + T6 313 ) ) ( <= ( + T6 381 )( + T5 324 ) ) )
(or ( <= ( + T5 12 ) T7 ) ( <= ( + T7 69 ) T5 ) )
(or ( <= ( + T5 98 )  ( + T7 69 ) ) ( <= ( + T7 167 )( + T5 12 ) ) )
(or ( <= ( + T5 165 )  ( + T7 167 ) ) ( <= ( + T7 178 )( + T5 98 ) ) )
(or ( <= ( + T5 262 )  ( + T7 178 ) ) ( <= ( + T7 199 )( + T5 165 ) ) )
(or ( <= ( + T5 324 )  ( + T7 199 ) ) ( <= ( + T7 220 )( + T5 262 ) ) )
(or ( <= ( + T5 340 )  ( + T7 220 ) ) ( <= ( + T7 309 )( + T5 324 ) ) )
(or ( <= ( + T5 12 ) T8 ) ( <= ( + T8 81 ) T5 ) )
(or ( <= ( + T5 98 )  ( + T8 81 ) ) ( <= ( + T8 93 )( + T5 12 ) ) )
(or ( <= ( + T5 165 )  ( + T8 93 ) ) ( <= ( + T8 98 )( + T5 98 ) ) )
(or ( <= ( + T5 262 )  ( + T8 98 ) ) ( <= ( + T8 138 )( + T5 165 ) ) )
(or ( <= ( + T5 324 )  ( + T8 138 ) ) ( <= ( + T8 182 )( + T5 262 ) ) )
(or ( <= ( + T5 340 )  ( + T8 182 ) ) ( <= ( + T8 254 )( + T5 324 ) ) )
(or ( <= ( + T6 48 ) T7 ) ( <= ( + T7 69 ) T6 ) )
(or ( <= ( + T6 124 )  ( + T7 69 ) ) ( <= ( + T7 167 )( + T6 48 ) ) )
(or ( <= ( + T6 216 )  ( + T7 167 ) ) ( <= ( + T7 178 )( + T6 124 ) ) )
(or ( <= ( + T6 295 )  ( + T7 178 ) ) ( <= ( + T7 199 )( + T6 216 ) ) )
(or ( <= ( + T6 313 )  ( + T7 199 ) ) ( <= ( + T7 220 )( + T6 295 ) ) )
(or ( <= ( + T6 381 )  ( + T7 220 ) ) ( <= ( + T7 309 )( + T6 313 ) ) )
(or ( <= ( + T6 48 ) T8 ) ( <= ( + T8 81 ) T6 ) )
(or ( <= ( + T6 124 )  ( + T8 81 ) ) ( <= ( + T8 93 )( + T6 48 ) ) )
(or ( <= ( + T6 216 )  ( + T8 93 ) ) ( <= ( + T8 98 )( + T6 124 ) ) )
(or ( <= ( + T6 295 )  ( + T8 98 ) ) ( <= ( + T8 138 )( + T6 216 ) ) )
(or ( <= ( + T6 313 )  ( + T8 138 ) ) ( <= ( + T8 182 )( + T6 295 ) ) )
(or ( <= ( + T6 381 )  ( + T8 182 ) ) ( <= ( + T8 254 )( + T6 313 ) ) )
(or ( <= ( + T7 69 ) T8 ) ( <= ( + T8 81 ) T7 ) )
(or ( <= ( + T7 167 )  ( + T8 81 ) ) ( <= ( + T8 93 )( + T7 69 ) ) )
(or ( <= ( + T7 178 )  ( + T8 93 ) ) ( <= ( + T8 98 )( + T7 167 ) ) )
(or ( <= ( + T7 199 )  ( + T8 98 ) ) ( <= ( + T8 138 )( + T7 178 ) ) )
(or ( <= ( + T7 220 )  ( + T8 138 ) ) ( <= ( + T8 182 )( + T7 199 ) ) )
(or ( <= ( + T7 309 )  ( + T8 182 ) ) ( <= ( + T8 254 )( + T7 220 ) ) )
( <= ( + T1 378 ) Z)
( <= ( + T2 286 ) Z)
( <= ( + T3 221 ) Z)
( <= ( + T4 283 ) Z)
( <= ( + T5 340 ) Z)
( <= ( + T6 381 ) Z)
( <= ( + T7 309 ) Z)
( <= ( + T8 254 ) Z)
( >= T1 0 )
( >= T2 0 )
( >= T3 0 )
( >= T4 0 )
( >= T5 0 )
( >= T6 0 )
( >= T7 0 )
( >= T8 0 )
) )
(minimize Z)
(check-sat)